data;

param num_top:=6;

#nodes and edges of the physical network
param n := 10;

set E := (1,2) (1,3) (1,7) (2,4) (2,7) (3,5) (4,8) (5,6) (5,7) (6,7) (6,9) (7,8) (7,9) (8,10) (9,10) ;

#nodes and edges of the virtual networks
set Nl[1] := 8 10 4 2 1 ;
set Nl[2] := 9 10 2 3 4 ;
set Nl[3] := 9 3 1 10 8 ;
set Nl[4] := 1 3 9 7 5 ;
set Nl[5] := 6 4 8 5 10 ;
set Nl[6] := 1 8 2 7 10 ;

set El[1] := (8,10) (4,10) (2,4) (1,2) (1,8) (1,4) (1,10) (2,8) (2,10) (4,8) ;
set El[2] := (9,10) (2,10) (2,3) (3,4) (4,9) (4,10) (2,9) (3,9) (2,4) (3,10) ;
set El[3] := (3,9) (1,3) (1,10) (8,10) (8,9) (3,8) (1,8) (3,10) (1,9) (9,10) ;
set El[4] := (1,3) (3,9) (7,9) (5,7) (1,5) (1,7) (3,5) (3,7) (1,9) (5,9) ;
set El[5] := (4,6) (4,8) (5,8) (5,10) (6,10) (8,10) (4,5) (6,8) (4,10) (5,6) ;
set El[6] := (1,8) (2,8) (2,7) (7,10) (1,10) (2,10) (1,2) (8,10) (1,7) (7,8) ;
